100 8
351 334
247 478
221 922
751 360
333 570
34 280
341 377
582 273
293 848
413 808
757 203
317 184
324 446
534 96
115 287
364 808
315 564
525 268
171 554
405 267
85 106
102 210
557 307
840 678
316 432
662 607
933 638
355 101
173 890
362 341
207 898
315 295
228 266
842 738
756 292
277 82
355 471
544 253
100 177
730 480
290 714
779 601
713 98
263 382
256 109
363 677
741 635
903 183
417 621
322 307
283 361
570 186
588 452
340 495
590 187
70 765
238 544
331 472
417 251
380 334
859 268
811 602
636 237
645 677
360 307
678 587
765 233
359 926
196 813
298 333
109 269
417 858
645 576
571 714
168 113
156 875
274 293
418 222
543 79
836 209
187 593
176 618
301 457
167 872
299 351
293 323
718 449
310 247
388 180
457 874
148 272
751 323
329 953
310 260
778 837
873 302
352 577
807 347
357 456
114 278
